p wcnf 197 296 297 
1 -106 61 0 
1 70 -115 0 
1 -55 21 0 
1 -150 -66 0 
1 -164 -40 0 
1 -8 168 0 
1 189 149 0 
1 -10 -78 0 
1 183 127 0 
1 127 -41 0 
1 79 196 0 
1 -75 -196 0 
1 177 -88 0 
1 71 106 0 
1 -43 107 0 
1 -184 -71 0 
1 -36 -2 0 
1 -3 -172 0 
1 -143 -150 0 
1 116 -28 0 
1 103 75 0 
1 -113 55 0 
1 180 49 0 
1 35 -4 0 
1 37 96 0 
1 23 84 0 
1 -166 -146 0 
1 189 73 0 
1 100 149 0 
1 169 167 0 
1 137 -120 0 
1 102 104 0 
1 -56 172 0 
1 -136 -96 0 
1 -148 73 0 
1 134 33 0 
1 -2 104 0 
1 13 -44 0 
1 32 18 0 
1 53 31 0 
1 162 -61 0 
1 172 -89 0 
1 -89 45 0 
1 -67 19 0 
1 174 153 0 
1 57 -180 0 
1 86 30 0 
1 -107 96 0 
1 -65 73 0 
1 71 -26 0 
1 116 152 0 
1 196 139 0 
1 165 -169 0 
1 113 -149 0 
1 166 54 0 
1 -158 -40 0 
1 -180 11 0 
1 49 96 0 
1 -87 -58 0 
1 184 -171 0 
1 185 40 0 
1 136 107 0 
1 -23 -20 0 
1 -146 -49 0 
1 -28 81 0 
1 -21 18 0 
1 -70 -104 0 
1 82 109 0 
1 -85 -44 0 
1 -58 134 0 
1 4 -75 0 
1 -155 67 0 
1 -162 -92 0 
1 -182 -106 0 
1 -147 -52 0 
1 12 144 0 
1 191 -102 0 
1 85 5 0 
1 30 -39 0 
1 46 -1 0 
1 -117 -100 0 
1 -26 -95 0 
1 -191 -55 0 
1 10 -51 0 
1 -35 189 0 
1 -2 173 0 
1 140 -59 0 
1 155 100 0 
1 119 -196 0 
1 -184 29 0 
1 150 141 0 
1 -126 70 0 
1 -58 -2 0 
1 -124 10 0 
1 10 172 0 
1 78 140 0 
1 -112 127 0 
1 99 -149 0 
1 7 -147 0 
1 114 -42 0 
1 -50 -122 0 
1 -126 9 0 
1 -11 111 0 
1 33 1 0 
1 -185 36 0 
1 -92 -79 0 
1 141 -119 0 
1 106 150 0 
1 140 -126 0 
1 137 -16 0 
1 35 120 0 
1 -21 -186 0 
1 35 -182 0 
1 85 -79 0 
1 -5 -100 0 
1 41 104 0 
1 -17 -160 0 
1 46 -142 0 
1 115 -45 0 
1 55 85 0 
1 56 -102 0 
1 -143 92 0 
1 -67 -86 0 
1 79 179 0 
1 154 -1 0 
1 -31 152 0 
1 186 -144 0 
1 55 -124 0 
1 -165 -12 0 
1 -47 -92 0 
1 -16 -40 0 
1 123 53 0 
1 -69 -155 0 
1 63 -146 0 
1 181 131 0 
1 -14 170 0 
1 -36 -14 0 
1 -178 -92 0 
1 35 182 0 
1 -153 -15 0 
1 131 164 0 
1 58 -61 0 
1 -17 149 0 
1 -132 37 0 
1 56 77 0 
1 -42 -121 0 
1 -124 -147 0 
1 -113 5 0 
1 -7 89 0 
1 26 -92 0 
1 -33 17 0 
1 -3 89 0 
1 -173 79 0 
1 178 -76 0 
1 29 145 0 
1 59 180 0 
1 1 16 0 
1 197 193 0 
1 179 -54 0 
1 176 120 0 
1 140 -36 0 
1 -67 -75 0 
1 -151 -64 0 
1 -111 23 0 
1 9 -47 0 
1 -86 174 0 
1 74 -96 0 
1 163 184 0 
1 -150 -165 0 
1 -148 83 0 
1 71 -5 0 
1 23 -177 0 
1 -188 -84 0 
1 -147 8 0 
1 -178 -183 0 
1 -118 110 0 
1 -141 -110 0 
1 183 -53 0 
1 144 -57 0 
1 186 55 0 
1 -34 -173 0 
1 -133 148 0 
1 33 104 0 
1 62 21 0 
1 -111 35 0 
1 78 -22 0 
1 95 -31 0 
1 -22 -147 0 
1 155 -62 0 
1 130 30 0 
1 167 -128 0 
1 -40 -108 0 
1 -138 179 0 
1 -188 177 0 
1 -163 -135 0 
1 -23 61 0 
1 -96 -60 0 
1 59 -67 0 
1 -119 -75 0 
1 -54 61 0 
1 -136 127 0 
1 135 178 0 
1 21 -44 0 
1 44 -53 0 
1 124 178 0 
1 42 170 0 
1 -166 -148 0 
1 -122 -23 0 
1 -179 20 0 
1 -8 185 0 
1 -113 -20 0 
1 -144 32 0 
1 149 43 0 
1 -52 28 0 
1 84 -76 0 
1 -98 -3 0 
1 -158 -18 0 
1 11 185 0 
1 139 138 0 
1 22 -137 0 
1 29 79 0 
1 122 196 0 
1 -168 75 0 
1 -127 -20 0 
1 150 64 0 
1 19 -69 0 
1 100 176 0 
1 132 -101 0 
1 -49 -33 0 
1 -58 179 0 
1 176 21 0 
1 87 -105 0 
1 100 98 0 
1 -49 197 0 
1 84 154 0 
1 136 -12 0 
1 126 134 0 
1 -58 112 0 
1 83 -144 0 
1 171 -182 0 
1 32 36 0 
1 165 18 0 
1 7 159 0 
1 19 -143 0 
1 -106 -34 0 
1 -157 -129 0 
1 79 96 0 
1 93 161 0 
1 -18 91 0 
1 -16 92 0 
1 155 -30 0 
1 -176 -105 0 
1 17 168 0 
1 197 -55 0 
1 -19 62 0 
1 -56 157 0 
1 163 137 0 
1 -156 151 0 
1 -117 115 0 
1 92 36 0 
1 -51 159 0 
1 -45 1 0 
1 174 -155 0 
1 15 100 0 
1 36 -23 0 
1 -80 -82 0 
1 -91 -117 0 
1 124 175 0 
1 -167 23 0 
1 -30 69 0 
1 -42 39 0 
1 132 -143 0 
1 -94 -13 0 
1 106 -72 0 
1 72 13 0 
1 127 164 0 
1 99 71 0 
1 -37 10 0 
1 70 9 0 
1 -111 -46 0 
1 76 -64 0 
1 -12 -58 0 
1 -49 -171 0 
1 -24 -71 0 
1 -145 175 0 
1 -172 12 0 
1 -164 123 0 
1 -2 -145 0 
1 -21 -103 0 
1 -170 -96 0 
1 -132 35 0 
1 -105 -162 0 
1 -10 -32 0 
1 124 -182 0 
1 96 -106 0 
1 -98 -15 0 
